unsat
(define-fun skel ((i22 Bool) (i21 Bool) (i20 Bool) (i23 Bool)) Bool (and (and (and (not i21) (not i23)) (not i20)) (not i22)))
24.55user 0.01system 0:24.57elapsed 99%CPU (0avgtext+0avgdata 44008maxresident)k
0inputs+8outputs (0major+5611minor)pagefaults 0swaps
